NAME: tsp25_20
COMMENT: 25-tsp problem (Padberg/Rinaldi)
TYPE: TSP
DIMENSION: 25
EDGE_WEIGHT_TYPE : EUC_2D
NODE_COORD_SECTION
1 29 5
2 33 9
3 23 18
4 18 2
5 34 30
6 18 3
7 20 23
8 35 16
9 3 7
10 7 5
11 5 23
12 6 27
13 31 26
14 5 31
15 9 36
16 7 34
17 36 21
18 20 36
19 20 9
20 30 34
21 21 25
22 13 17
23 30 34
24 38 11
25 37 7
